c Hopefully unsat graph coloring CNF
c Trying to color graph myciel5 with 5 colors.
c Variable (n*colors)+k tries to color node n by color k
c so variable 1 is the first node colored by the first color
c signifying nodes start at 0 and colors at 1
p cnf 235 1227
1 2 3 4 5 0
6 7 8 9 10 0
11 12 13 14 15 0
16 17 18 19 20 0
21 22 23 24 25 0
26 27 28 29 30 0
31 32 33 34 35 0
36 37 38 39 40 0
41 42 43 44 45 0
46 47 48 49 50 0
51 52 53 54 55 0
56 57 58 59 60 0
61 62 63 64 65 0
66 67 68 69 70 0
71 72 73 74 75 0
76 77 78 79 80 0
81 82 83 84 85 0
86 87 88 89 90 0
91 92 93 94 95 0
96 97 98 99 100 0
101 102 103 104 105 0
106 107 108 109 110 0
111 112 113 114 115 0
116 117 118 119 120 0
121 122 123 124 125 0
126 127 128 129 130 0
131 132 133 134 135 0
136 137 138 139 140 0
141 142 143 144 145 0
146 147 148 149 150 0
151 152 153 154 155 0
156 157 158 159 160 0
161 162 163 164 165 0
166 167 168 169 170 0
171 172 173 174 175 0
176 177 178 179 180 0
181 182 183 184 185 0
186 187 188 189 190 0
191 192 193 194 195 0
196 197 198 199 200 0
201 202 203 204 205 0
206 207 208 209 210 0
211 212 213 214 215 0
216 217 218 219 220 0
221 222 223 224 225 0
226 227 228 229 230 0
231 232 233 234 235 0
-1 -6 0
-2 -7 0
-3 -8 0
-4 -9 0
-5 -10 0
-1 -16 0
-2 -17 0
-3 -18 0
-4 -19 0
-5 -20 0
-1 -31 0
-2 -32 0
-3 -33 0
-4 -34 0
-5 -35 0
-1 -41 0
-2 -42 0
-3 -43 0
-4 -44 0
-5 -45 0
-1 -61 0
-2 -62 0
-3 -63 0
-4 -64 0
-5 -65 0
-1 -71 0
-2 -72 0
-3 -73 0
-4 -74 0
-5 -75 0
-1 -86 0
-2 -87 0
-3 -88 0
-4 -89 0
-5 -90 0
-1 -96 0
-2 -97 0
-3 -98 0
-4 -99 0
-5 -100 0
-1 -121 0
-2 -122 0
-3 -123 0
-4 -124 0
-5 -125 0
-1 -131 0
-2 -132 0
-3 -133 0
-4 -134 0
-5 -135 0
-1 -146 0
-2 -147 0
-3 -148 0
-4 -149 0
-5 -150 0
-1 -156 0
-2 -157 0
-3 -158 0
-4 -159 0
-5 -160 0
-1 -176 0
-2 -177 0
-3 -178 0
-4 -179 0
-5 -180 0
-1 -186 0
-2 -187 0
-3 -188 0
-4 -189 0
-5 -190 0
-1 -201 0
-2 -202 0
-3 -203 0
-4 -204 0
-5 -205 0
-1 -211 0
-2 -212 0
-3 -213 0
-4 -214 0
-5 -215 0
-6 -11 0
-7 -12 0
-8 -13 0
-9 -14 0
-10 -15 0
-6 -26 0
-7 -27 0
-8 -28 0
-9 -29 0
-10 -30 0
-6 -36 0
-7 -37 0
-8 -38 0
-9 -39 0
-10 -40 0
-6 -56 0
-7 -57 0
-8 -58 0
-9 -59 0
-10 -60 0
-6 -66 0
-7 -67 0
-8 -68 0
-9 -69 0
-10 -70 0
-6 -81 0
-7 -82 0
-8 -83 0
-9 -84 0
-10 -85 0
-6 -91 0
-7 -92 0
-8 -93 0
-9 -94 0
-10 -95 0
-6 -116 0
-7 -117 0
-8 -118 0
-9 -119 0
-10 -120 0
-6 -126 0
-7 -127 0
-8 -128 0
-9 -129 0
-10 -130 0
-6 -141 0
-7 -142 0
-8 -143 0
-9 -144 0
-10 -145 0
-6 -151 0
-7 -152 0
-8 -153 0
-9 -154 0
-10 -155 0
-6 -171 0
-7 -172 0
-8 -173 0
-9 -174 0
-10 -175 0
-6 -181 0
-7 -182 0
-8 -183 0
-9 -184 0
-10 -185 0
-6 -196 0
-7 -197 0
-8 -198 0
-9 -199 0
-10 -200 0
-6 -206 0
-7 -207 0
-8 -208 0
-9 -209 0
-10 -210 0
-11 -21 0
-12 -22 0
-13 -23 0
-14 -24 0
-15 -25 0
-11 -31 0
-12 -32 0
-13 -33 0
-14 -34 0
-15 -35 0
-11 -46 0
-12 -47 0
-13 -48 0
-14 -49 0
-15 -50 0
-11 -61 0
-12 -62 0
-13 -63 0
-14 -64 0
-15 -65 0
-11 -76 0
-12 -77 0
-13 -78 0
-14 -79 0
-15 -80 0
-11 -86 0
-12 -87 0
-13 -88 0
-14 -89 0
-15 -90 0
-11 -101 0
-12 -102 0
-13 -103 0
-14 -104 0
-15 -105 0
-11 -121 0
-12 -122 0
-13 -123 0
-14 -124 0
-15 -125 0
-11 -136 0
-12 -137 0
-13 -138 0
-14 -139 0
-15 -140 0
-11 -146 0
-12 -147 0
-13 -148 0
-14 -149 0
-15 -150 0
-11 -161 0
-12 -162 0
-13 -163 0
-14 -164 0
-15 -165 0
-11 -176 0
-12 -177 0
-13 -178 0
-14 -179 0
-15 -180 0
-11 -191 0
-12 -192 0
-13 -193 0
-14 -194 0
-15 -195 0
-11 -201 0
-12 -202 0
-13 -203 0
-14 -204 0
-15 -205 0
-11 -216 0
-12 -217 0
-13 -218 0
-14 -219 0
-15 -220 0
-16 -21 0
-17 -22 0
-18 -23 0
-19 -24 0
-20 -25 0
-16 -26 0
-17 -27 0
-18 -28 0
-19 -29 0
-20 -30 0
-16 -46 0
-17 -47 0
-18 -48 0
-19 -49 0
-20 -50 0
-16 -56 0
-17 -57 0
-18 -58 0
-19 -59 0
-20 -60 0
-16 -76 0
-17 -77 0
-18 -78 0
-19 -79 0
-20 -80 0
-16 -81 0
-17 -82 0
-18 -83 0
-19 -84 0
-20 -85 0
-16 -101 0
-17 -102 0
-18 -103 0
-19 -104 0
-20 -105 0
-16 -116 0
-17 -117 0
-18 -118 0
-19 -119 0
-20 -120 0
-16 -136 0
-17 -137 0
-18 -138 0
-19 -139 0
-20 -140 0
-16 -141 0
-17 -142 0
-18 -143 0
-19 -144 0
-20 -145 0
-16 -161 0
-17 -162 0
-18 -163 0
-19 -164 0
-20 -165 0
-16 -171 0
-17 -172 0
-18 -173 0
-19 -174 0
-20 -175 0
-16 -191 0
-17 -192 0
-18 -193 0
-19 -194 0
-20 -195 0
-16 -196 0
-17 -197 0
-18 -198 0
-19 -199 0
-20 -200 0
-16 -216 0
-17 -217 0
-18 -218 0
-19 -219 0
-20 -220 0
-21 -36 0
-22 -37 0
-23 -38 0
-24 -39 0
-25 -40 0
-21 -41 0
-22 -42 0
-23 -43 0
-24 -44 0
-25 -45 0
-21 -66 0
-22 -67 0
-23 -68 0
-24 -69 0
-25 -70 0
-21 -71 0
-22 -72 0
-23 -73 0
-24 -74 0
-25 -75 0
-21 -91 0
-22 -92 0
-23 -93 0
-24 -94 0
-25 -95 0
-21 -96 0
-22 -97 0
-23 -98 0
-24 -99 0
-25 -100 0
-21 -126 0
-22 -127 0
-23 -128 0
-24 -129 0
-25 -130 0
-21 -131 0
-22 -132 0
-23 -133 0
-24 -134 0
-25 -135 0
-21 -151 0
-22 -152 0
-23 -153 0
-24 -154 0
-25 -155 0
-21 -156 0
-22 -157 0
-23 -158 0
-24 -159 0
-25 -160 0
-21 -181 0
-22 -182 0
-23 -183 0
-24 -184 0
-25 -185 0
-21 -186 0
-22 -187 0
-23 -188 0
-24 -189 0
-25 -190 0
-21 -206 0
-22 -207 0
-23 -208 0
-24 -209 0
-25 -210 0
-21 -211 0
-22 -212 0
-23 -213 0
-24 -214 0
-25 -215 0
-26 -51 0
-27 -52 0
-28 -53 0
-29 -54 0
-30 -55 0
-26 -61 0
-27 -62 0
-28 -63 0
-29 -64 0
-30 -65 0
-26 -71 0
-27 -72 0
-28 -73 0
-29 -74 0
-30 -75 0
-26 -106 0
-27 -107 0
-28 -108 0
-29 -109 0
-30 -110 0
-26 -121 0
-27 -122 0
-28 -123 0
-29 -124 0
-30 -125 0
-26 -131 0
-27 -132 0
-28 -133 0
-29 -134 0
-30 -135 0
-26 -166 0
-27 -167 0
-28 -168 0
-29 -169 0
-30 -170 0
-26 -176 0
-27 -177 0
-28 -178 0
-29 -179 0
-30 -180 0
-26 -186 0
-27 -187 0
-28 -188 0
-29 -189 0
-30 -190 0
-26 -221 0
-27 -222 0
-28 -223 0
-29 -224 0
-30 -225 0
-31 -51 0
-32 -52 0
-33 -53 0
-34 -54 0
-35 -55 0
-31 -56 0
-32 -57 0
-33 -58 0
-34 -59 0
-35 -60 0
-31 -66 0
-32 -67 0
-33 -68 0
-34 -69 0
-35 -70 0
-31 -106 0
-32 -107 0
-33 -108 0
-34 -109 0
-35 -110 0
-31 -116 0
-32 -117 0
-33 -118 0
-34 -119 0
-35 -120 0
-31 -126 0
-32 -127 0
-33 -128 0
-34 -129 0
-35 -130 0
-31 -166 0
-32 -167 0
-33 -168 0
-34 -169 0
-35 -170 0
-31 -171 0
-32 -172 0
-33 -173 0
-34 -174 0
-35 -175 0
-31 -181 0
-32 -182 0
-33 -183 0
-34 -184 0
-35 -185 0
-31 -221 0
-32 -222 0
-33 -223 0
-34 -224 0
-35 -225 0
-36 -51 0
-37 -52 0
-38 -53 0
-39 -54 0
-40 -55 0
-36 -61 0
-37 -62 0
-38 -63 0
-39 -64 0
-40 -65 0
-36 -76 0
-37 -77 0
-38 -78 0
-39 -79 0
-40 -80 0
-36 -106 0
-37 -107 0
-38 -108 0
-39 -109 0
-40 -110 0
-36 -121 0
-37 -122 0
-38 -123 0
-39 -124 0
-40 -125 0
-36 -136 0
-37 -137 0
-38 -138 0
-39 -139 0
-40 -140 0
-36 -166 0
-37 -167 0
-38 -168 0
-39 -169 0
-40 -170 0
-36 -176 0
-37 -177 0
-38 -178 0
-39 -179 0
-40 -180 0
-36 -191 0
-37 -192 0
-38 -193 0
-39 -194 0
-40 -195 0
-36 -221 0
-37 -222 0
-38 -223 0
-39 -224 0
-40 -225 0
-41 -51 0
-42 -52 0
-43 -53 0
-44 -54 0
-45 -55 0
-41 -56 0
-42 -57 0
-43 -58 0
-44 -59 0
-45 -60 0
-41 -76 0
-42 -77 0
-43 -78 0
-44 -79 0
-45 -80 0
-41 -106 0
-42 -107 0
-43 -108 0
-44 -109 0
-45 -110 0
-41 -116 0
-42 -117 0
-43 -118 0
-44 -119 0
-45 -120 0
-41 -136 0
-42 -137 0
-43 -138 0
-44 -139 0
-45 -140 0
-41 -166 0
-42 -167 0
-43 -168 0
-44 -169 0
-45 -170 0
-41 -171 0
-42 -172 0
-43 -173 0
-44 -174 0
-45 -175 0
-41 -191 0
-42 -192 0
-43 -193 0
-44 -194 0
-45 -195 0
-41 -221 0
-42 -222 0
-43 -223 0
-44 -224 0
-45 -225 0
-46 -51 0
-47 -52 0
-48 -53 0
-49 -54 0
-50 -55 0
-46 -66 0
-47 -67 0
-48 -68 0
-49 -69 0
-50 -70 0
-46 -71 0
-47 -72 0
-48 -73 0
-49 -74 0
-50 -75 0
-46 -106 0
-47 -107 0
-48 -108 0
-49 -109 0
-50 -110 0
-46 -126 0
-47 -127 0
-48 -128 0
-49 -129 0
-50 -130 0
-46 -131 0
-47 -132 0
-48 -133 0
-49 -134 0
-50 -135 0
-46 -166 0
-47 -167 0
-48 -168 0
-49 -169 0
-50 -170 0
-46 -181 0
-47 -182 0
-48 -183 0
-49 -184 0
-50 -185 0
-46 -186 0
-47 -187 0
-48 -188 0
-49 -189 0
-50 -190 0
-46 -221 0
-47 -222 0
-48 -223 0
-49 -224 0
-50 -225 0
-51 -81 0
-52 -82 0
-53 -83 0
-54 -84 0
-55 -85 0
-51 -86 0
-52 -87 0
-53 -88 0
-54 -89 0
-55 -90 0
-51 -91 0
-52 -92 0
-53 -93 0
-54 -94 0
-55 -95 0
-51 -96 0
-52 -97 0
-53 -98 0
-54 -99 0
-55 -100 0
-51 -101 0
-52 -102 0
-53 -103 0
-54 -104 0
-55 -105 0
-51 -141 0
-52 -142 0
-53 -143 0
-54 -144 0
-55 -145 0
-51 -146 0
-52 -147 0
-53 -148 0
-54 -149 0
-55 -150 0
-51 -151 0
-52 -152 0
-53 -153 0
-54 -154 0
-55 -155 0
-51 -156 0
-52 -157 0
-53 -158 0
-54 -159 0
-55 -160 0
-51 -161 0
-52 -162 0
-53 -163 0
-54 -164 0
-55 -165 0
-51 -196 0
-52 -197 0
-53 -198 0
-54 -199 0
-55 -200 0
-51 -201 0
-52 -202 0
-53 -203 0
-54 -204 0
-55 -205 0
-51 -206 0
-52 -207 0
-53 -208 0
-54 -209 0
-55 -210 0
-51 -211 0
-52 -212 0
-53 -213 0
-54 -214 0
-55 -215 0
-51 -216 0
-52 -217 0
-53 -218 0
-54 -219 0
-55 -220 0
-56 -111 0
-57 -112 0
-58 -113 0
-59 -114 0
-60 -115 0
-56 -121 0
-57 -122 0
-58 -123 0
-59 -124 0
-60 -125 0
-56 -131 0
-57 -132 0
-58 -133 0
-59 -134 0
-60 -135 0
-56 -146 0
-57 -147 0
-58 -148 0
-59 -149 0
-60 -150 0
-56 -156 0
-57 -157 0
-58 -158 0
-59 -159 0
-60 -160 0
-56 -226 0
-57 -227 0
-58 -228 0
-59 -229 0
-60 -230 0
-61 -111 0
-62 -112 0
-63 -113 0
-64 -114 0
-65 -115 0
-61 -116 0
-62 -117 0
-63 -118 0
-64 -119 0
-65 -120 0
-61 -126 0
-62 -127 0
-63 -128 0
-64 -129 0
-65 -130 0
-61 -141 0
-62 -142 0
-63 -143 0
-64 -144 0
-65 -145 0
-61 -151 0
-62 -152 0
-63 -153 0
-64 -154 0
-65 -155 0
-61 -226 0
-62 -227 0
-63 -228 0
-64 -229 0
-65 -230 0
-66 -111 0
-67 -112 0
-68 -113 0
-69 -114 0
-70 -115 0
-66 -121 0
-67 -122 0
-68 -123 0
-69 -124 0
-70 -125 0
-66 -136 0
-67 -137 0
-68 -138 0
-69 -139 0
-70 -140 0
-66 -146 0
-67 -147 0
-68 -148 0
-69 -149 0
-70 -150 0
-66 -161 0
-67 -162 0
-68 -163 0
-69 -164 0
-70 -165 0
-66 -226 0
-67 -227 0
-68 -228 0
-69 -229 0
-70 -230 0
-71 -111 0
-72 -112 0
-73 -113 0
-74 -114 0
-75 -115 0
-71 -116 0
-72 -117 0
-73 -118 0
-74 -119 0
-75 -120 0
-71 -136 0
-72 -137 0
-73 -138 0
-74 -139 0
-75 -140 0
-71 -141 0
-72 -142 0
-73 -143 0
-74 -144 0
-75 -145 0
-71 -161 0
-72 -162 0
-73 -163 0
-74 -164 0
-75 -165 0
-71 -226 0
-72 -227 0
-73 -228 0
-74 -229 0
-75 -230 0
-76 -111 0
-77 -112 0
-78 -113 0
-79 -114 0
-80 -115 0
-76 -126 0
-77 -127 0
-78 -128 0
-79 -129 0
-80 -130 0
-76 -131 0
-77 -132 0
-78 -133 0
-79 -134 0
-80 -135 0
-76 -151 0
-77 -152 0
-78 -153 0
-79 -154 0
-80 -155 0
-76 -156 0
-77 -157 0
-78 -158 0
-79 -159 0
-80 -160 0
-76 -226 0
-77 -227 0
-78 -228 0
-79 -229 0
-80 -230 0
-81 -111 0
-82 -112 0
-83 -113 0
-84 -114 0
-85 -115 0
-81 -121 0
-82 -122 0
-83 -123 0
-84 -124 0
-85 -125 0
-81 -131 0
-82 -132 0
-83 -133 0
-84 -134 0
-85 -135 0
-81 -166 0
-82 -167 0
-83 -168 0
-84 -169 0
-85 -170 0
-81 -226 0
-82 -227 0
-83 -228 0
-84 -229 0
-85 -230 0
-86 -111 0
-87 -112 0
-88 -113 0
-89 -114 0
-90 -115 0
-86 -116 0
-87 -117 0
-88 -118 0
-89 -119 0
-90 -120 0
-86 -126 0
-87 -127 0
-88 -128 0
-89 -129 0
-90 -130 0
-86 -166 0
-87 -167 0
-88 -168 0
-89 -169 0
-90 -170 0
-86 -226 0
-87 -227 0
-88 -228 0
-89 -229 0
-90 -230 0
-91 -111 0
-92 -112 0
-93 -113 0
-94 -114 0
-95 -115 0
-91 -121 0
-92 -122 0
-93 -123 0
-94 -124 0
-95 -125 0
-91 -136 0
-92 -137 0
-93 -138 0
-94 -139 0
-95 -140 0
-91 -166 0
-92 -167 0
-93 -168 0
-94 -169 0
-95 -170 0
-91 -226 0
-92 -227 0
-93 -228 0
-94 -229 0
-95 -230 0
-96 -111 0
-97 -112 0
-98 -113 0
-99 -114 0
-100 -115 0
-96 -116 0
-97 -117 0
-98 -118 0
-99 -119 0
-100 -120 0
-96 -136 0
-97 -137 0
-98 -138 0
-99 -139 0
-100 -140 0
-96 -166 0
-97 -167 0
-98 -168 0
-99 -169 0
-100 -170 0
-96 -226 0
-97 -227 0
-98 -228 0
-99 -229 0
-100 -230 0
-101 -111 0
-102 -112 0
-103 -113 0
-104 -114 0
-105 -115 0
-101 -126 0
-102 -127 0
-103 -128 0
-104 -129 0
-105 -130 0
-101 -131 0
-102 -132 0
-103 -133 0
-104 -134 0
-105 -135 0
-101 -166 0
-102 -167 0
-103 -168 0
-104 -169 0
-105 -170 0
-101 -226 0
-102 -227 0
-103 -228 0
-104 -229 0
-105 -230 0
-106 -111 0
-107 -112 0
-108 -113 0
-109 -114 0
-110 -115 0
-106 -141 0
-107 -142 0
-108 -143 0
-109 -144 0
-110 -145 0
-106 -146 0
-107 -147 0
-108 -148 0
-109 -149 0
-110 -150 0
-106 -151 0
-107 -152 0
-108 -153 0
-109 -154 0
-110 -155 0
-106 -156 0
-107 -157 0
-108 -158 0
-109 -159 0
-110 -160 0
-106 -161 0
-107 -162 0
-108 -163 0
-109 -164 0
-110 -165 0
-106 -226 0
-107 -227 0
-108 -228 0
-109 -229 0
-110 -230 0
-111 -171 0
-112 -172 0
-113 -173 0
-114 -174 0
-115 -175 0
-111 -176 0
-112 -177 0
-113 -178 0
-114 -179 0
-115 -180 0
-111 -181 0
-112 -182 0
-113 -183 0
-114 -184 0
-115 -185 0
-111 -186 0
-112 -187 0
-113 -188 0
-114 -189 0
-115 -190 0
-111 -191 0
-112 -192 0
-113 -193 0
-114 -194 0
-115 -195 0
-111 -196 0
-112 -197 0
-113 -198 0
-114 -199 0
-115 -200 0
-111 -201 0
-112 -202 0
-113 -203 0
-114 -204 0
-115 -205 0
-111 -206 0
-112 -207 0
-113 -208 0
-114 -209 0
-115 -210 0
-111 -211 0
-112 -212 0
-113 -213 0
-114 -214 0
-115 -215 0
-111 -216 0
-112 -217 0
-113 -218 0
-114 -219 0
-115 -220 0
-111 -221 0
-112 -222 0
-113 -223 0
-114 -224 0
-115 -225 0
-116 -231 0
-117 -232 0
-118 -233 0
-119 -234 0
-120 -235 0
-121 -231 0
-122 -232 0
-123 -233 0
-124 -234 0
-125 -235 0
-126 -231 0
-127 -232 0
-128 -233 0
-129 -234 0
-130 -235 0
-131 -231 0
-132 -232 0
-133 -233 0
-134 -234 0
-135 -235 0
-136 -231 0
-137 -232 0
-138 -233 0
-139 -234 0
-140 -235 0
-141 -231 0
-142 -232 0
-143 -233 0
-144 -234 0
-145 -235 0
-146 -231 0
-147 -232 0
-148 -233 0
-149 -234 0
-150 -235 0
-151 -231 0
-152 -232 0
-153 -233 0
-154 -234 0
-155 -235 0
-156 -231 0
-157 -232 0
-158 -233 0
-159 -234 0
-160 -235 0
-161 -231 0
-162 -232 0
-163 -233 0
-164 -234 0
-165 -235 0
-166 -231 0
-167 -232 0
-168 -233 0
-169 -234 0
-170 -235 0
-171 -231 0
-172 -232 0
-173 -233 0
-174 -234 0
-175 -235 0
-176 -231 0
-177 -232 0
-178 -233 0
-179 -234 0
-180 -235 0
-181 -231 0
-182 -232 0
-183 -233 0
-184 -234 0
-185 -235 0
-186 -231 0
-187 -232 0
-188 -233 0
-189 -234 0
-190 -235 0
-191 -231 0
-192 -232 0
-193 -233 0
-194 -234 0
-195 -235 0
-196 -231 0
-197 -232 0
-198 -233 0
-199 -234 0
-200 -235 0
-201 -231 0
-202 -232 0
-203 -233 0
-204 -234 0
-205 -235 0
-206 -231 0
-207 -232 0
-208 -233 0
-209 -234 0
-210 -235 0
-211 -231 0
-212 -232 0
-213 -233 0
-214 -234 0
-215 -235 0
-216 -231 0
-217 -232 0
-218 -233 0
-219 -234 0
-220 -235 0
-221 -231 0
-222 -232 0
-223 -233 0
-224 -234 0
-225 -235 0
-226 -231 0
-227 -232 0
-228 -233 0
-229 -234 0
-230 -235 0
